100 10
21 25
51 79
70 91
16 36
81 93
63 71
82 100
66 82
99 98
52 80
49 30
16 31
73 50
94 100
93 67
51 52
16 1
78 100
24 7
93 100
3 10
70 63
41 66
40 58
97 80
55 65
71 93
73 91
59 58
12 8
24 4
77 85
38 61
27 53
58 58
42 70
72 77
7 5
46 56
98 96
21 6
75 75
10 36
23 25
10 1
6 33
67 64
22 23
23 20
57 51
30 56
9 1
14 23
99 100
79 51
32 24
87 100
51 38
7 1
79 57
18 1
53 63
3 2
76 77
97 100
16 41
74 83
57 76
24 41
85 93
82 86
49 41
1 1
75 82
66 75
40 45
76 100
3 1
90 100
44 62
84 58
82 61
50 54
32 32
72 79
64 46
25 25
30 59
17 34
50 72
96 80
96 100
19 1
50 45
57 41
58 49
70 79
25 51
35 33
57 55
387 460
379 437
456 520
578 685
606 737
480 546
451 538
607 709
614 719
402 476
